000 -99 000 000 -99 000 000 000 -99 -99 -99 -99 -99 -99 000 -99 -99 -99 -99 000 000 000 -99 000 000 000 -99 -99 -99 -99 -99
000 000 000 000 000 000 000 000 000 -99 -99 -99 -99 -99 000 000 -99 -99 -99 000 000 000 000 000 000 000 000 -99 -99 -99 -99
000 000 000 000 000 000 000 000 000 -99 -99 -99 -99 -99 000 000 -99 -99 -99 -99 000 000 000 000 000 000 000 000 -99 -99 -99
000 000 000 000 000 000 000 000 000 000 -99 -99 -99 -99 -99 -99 -99 -99 -99 -99 000 000 000 000 000 000 000 000 -99 -99 -99
000 000 000 000 000 000 000 000 000 000 -99 -99 000 000 -99 -99 -99 000 -99 -99 000 000 000 000 000 000 000 000 000 -99 -99
000 000 000 000 000 000 000 000 000 000 -99 -99 000 000 -99 -99 000 000 -99 -99 000 000 000 000 000 -99 -99 -99 -99 -99 -99
000 000 000 000 000 000 000 000 000 000 -99 -99 000 000 -99 -99 000 -99 -99 -99 000 000 000 000 000 -99 -99 -99 -99 -99 -99
000 000 000 000 000 000 000 000 000 000 000 -99 000 000 -99 -99 -99 -99 -99 -99 -99 000 000 000 000 -99 -99 -99 -99 -99 -99
000 000 000 000 000 000 000 000 000 000 000 000 -99 -99 -99 000 000 -99 -99 -99 000 000 000 -99 000 -99 -99 -99 -99 000 000
000 000 000 000 000 000 -99 -99 -99 000 000 000 -99 -99 000 000 000 000 000 -99 000 000 000 -99 -99 -99 000 000 -99 -99 000
000 000 000 000 000 000 000 000 000 000 000 000 -99 -99 -99 000 000 000 000 000 000 000 000 -99 000 -99 000 000 -99 000 000
000 000 000 000 000 -99 000 000 000 000 000 000 -99 -99 -99 000 000 000 000 000 000 -99 -99 000 000 -99 001 000 -99 000 000
000 000 000 -99 000 000 000 000 -99 000 000 000 000 -99 -99 -99 000 000 000 000 000 -99 -99 -99 000 000 003 004 000 000 000
000 000 000 000 000 000 000 000 -99 -99 000 000 000 -99 -99 -99 000 000 000 000 000 -99 -99 000 000 000 000 003 -99 000 000
000 000 000 000 000 000 000 000 000 -99 -99 -99 000 000 000 -99 000 000 000 000 000 -99 -99 000 000 000 000 000 000 000 000
000 -99 000 000 000 000 000 000 000 -99 -99 -99 -99 000 000 -99 000 000 000 -99 -99 -99 -99 000 000 000 000 000 000 -99 -99
000 000 000 000 000 000 000 000 000 -99 -99 -99 -99 000 000 000 000 000 000 -99 -99 -99 000 -99 000 000 000 000 000 000 000
000 000 000 000 -99 000 000 000 000 -99 -99 -99 -99 000 000 000 000 -99 -99 -99 -99 000 000 -99 000 000 000 000 -99 000 000
000 000 000 000 -99 -99 000 000 000 -99 -99 -99 -99 000 000 000 000 000 -99 -99 -99 000 000 -99 -99 -99 -99 -99 -99 000 -99
000 000 000 000 -99 -99 -99 000 000 -99 -99 -99 -99 000 000 -99 000 000 000 000 000 000 000 -99 -99 -99 -99 -99 -99 -99 -99
000 000 000 000 -99 -99 -99 000 000 -99 -99 -99 -99 000 -99 -99 000 000 000 000 000 000 000 -99 -99 -99 -99 -99 -99 -99 -99
000 000 000 000 000 -99 -99 000 000 000 -99 -99 -99 000 000 000 000 000 000 000 000 000 000 -99 -99 -99 -99 -99 -99 -99 -99
000 000 000 000 000 000 000 000 000 000 -99 -99 -99 000 000 000 000 000 000 000 000 000 000 -99 -99 -99 -99 -99 -99 -99 -99
000 000 000 000 000 000 000 000 000 000 000 -99 000 000 000 000 000 000 000 000 000 000 000 -99 -99 -99 -99 -99 -99 -99 -99
000 000 000 000 000 000 000 000 000 000 000 000 000 000 000 000 000 000 000 000 000 000 -99 -99 -99 -99 -99 -99 -99 -99 -99
000 000 000 000 000 000 000 000 000 001 000 000 000 000 000 000 000 000 000 000 000 -99 -99 -99 -99 -99 -99 -99 -99 -99 000
000 000 000 000 000 000 000 000 004 011 007 002 000 000 -99 -99 000 000 000 000 000 000 -99 -99 -99 -99 -99 -99 -99 -99 000
000 000 000 000 000 000 000 018 031 033 021 004 000 000 000 -99 -99 000 002 000 000 000 -99 -99 -99 -99 -99 -99 -99 -99 000
001 001 002 000 000 002 006 020 030 045 030 005 000 000 000 000 -99 000 001 000 000 -99 -99 -99 -99 -99 -99 -99 -99 -99 -99
003 004 008 002 000 004 028 040 050 055 034 006 002 003 000 000 -99 000 000 000 -99 -99 -99 -99 -99 -99 -99 -99 -99 -99 -99
006 002 006 004 004 016 034 025 047 087 023 007 021 021 003 000 000 000 000 000 -99 -99 -99 000 -99 -99 -99 -99 -99 -99 000
003 003 005 007 010 017 018 035 087 046 014 015 083 026 003 000 000 000 000 000 -99 -99 000 000 000 000 -99 -99 000 001 000
003 002 004 003 006 015 023 035 060 019 020 035 062 042 024 002 000 000 000 000 -99 000 000 000 000 000 002 001 001 001 000
001 001 001 001 005 012 035 015 012 025 092 056 035 033 060 023 000 000 000 000 -99 000 000 000 000 000 004 001 001 001 000
001 001 001 002 010 017 019 008 010 016 060 035 018 028 090 026 000 000 000 000 000 000 000 000 000 001 003 002 002 002 001
001 001 000 002 008 017 009 009 015 029 080 028 023 030 073 017 001 001 001 000 000 000 000 000 000 000 002 003 001 005 002
000 001 001 003 004 005 008 009 020 031 036 015 023 020 020 009 001 002 000 000 000 000 000 000 000 000 002 003 004 015 010
002 002 001 001 003 017 020 013 015 022 013 021 017 012 009 009 004 005 002 000 000 000 000 000 000 000 001 001 004 021 023
002 002 001 002 005 019 044 017 012 018 013 011 010 008 010 013 012 012 003 000 000 000 000 000 000 000 001 002 008 038 035
004 004 001 007 019 039 046 013 011 005 015 008 006 006 011 013 010 011 002 000 000 -99 000 000 000 000 000 001 011 040 031
004 003 002 021 028 038 032 011 007 010 019 004 005 006 015 016 008 004 000 000 -99 -99 000 000 000 000 000 001 011 023 012
004 004 007 022 029 031 019 014 014 017 023 015 008 008 007 010 005 001 000 000 -99 -99 000 000 000 000 -99 002 002 006 009
003 006 003 014 023 038 010 010 017 031 045 017 006 015 010 011 003 000 000 000 000 000 000 000 000 000 -99 002 001 001 002
003 006 007 008 028 025 022 017 014 020 026 021 008 007 008 012 002 000 -99 000 000 000 000 000 000 000 -99 000 000 001 001
003 003 002 006 035 014 026 012 010 010 018 011 013 012 008 006 000 000 000 000 000 000 000 000 000 -99 -99 000 001 001 -99
009 001 000 003 010 008 022 008 006 008 021 020 017 022 004 002 000 000 -99 000 000 000 000 000 000 -99 000 -99 -99 -99 000
009 000 000 001 002 005 018 021 016 007 007 014 026 021 002 001 001 -99 000 000 000 000 000 000 -99 -99 000 -99 -99 -99 -99
003 000 002 001 003 006 009 016 018 005 004 011 014 002 000 000 -99 000 -99 -99 000 000 000 -99 -99 -99 000 -99 -99 -99 -99
000 004 005 002 010 009 002 013 012 001 001 003 001 000 000 -99 -99 -99 -99 000 000 000 000 -99 -99 -99 -99 000 -99 -99 -99
000 008 017 003 017 006 000 002 001 000 000 000 000 000 -99 -99 -99 -99 -99 -99 000 000 -99 -99 -99 -99 -99 000 000 -99 -99
001 006 017 001 001 002 000 000 000 000 000 -99 -99 -99 -99 -99 -99 -99 -99 -99 000 000 -99 -99 -99 -99 000 -99 -99 -99 -99
000 002 002 000 000 000 000 000 000 000 -99 -99 000 -99 -99 -99 -99 -99 -99 -99 -99 -99 -99 -99 -99 -99 -99 -99 -99 -99 -99
000 000 000 000 000 000 000 001 000 000 -99 000 000 000 -99 -99 -99 -99 -99 -99 -99 -99 -99 -99 -99 -99 -99 -99 -99 -99 -99
000 000 000 001 000 000 000 001 000 000 000 001 000 -99 -99 -99 -99 -99 -99 -99 -99 -99 -99 -99 -99 -99 -99 -99 -99 -99 -99
000 000 000 000 000 000 001 001 000 000 003 003 001 -99 -99 -99 -99 -99 -99 -99 -99 -99 -99 -99 -99 -99 -99 -99 -99 -99 -99
